PREC = Accurate
ENCUT = 540
ISMEAR=1
NSW = 0
IBRION = -1
ISIF = 0
EDIFF = 1E-8
EDIFFG = -1E-4
LCHARG = .T.
LWAVE = .T.
NCORE=4
LREAL= .F.
NBANDS = 600
ISTART=0
ICHARG=2
LORBIT = 12
ALGO = Normal
ISYM = -1
NELM   =    200
NELMDL =     -5
