Y                                       
   1.00000000000000     
     5.4604001044999997    0.0000000000000000    0.0000000000000000
    -2.7302000522999998    4.7288452052999999    0.0000000000000000
     0.0000000000000000    0.0000000000000000   22.7719001769999991
   Al   B    Mo   Y 
     9    18    12     6
Direct
  0.0000000000000000  0.5000000000000000  0.5000000000000000
  0.5000000000000000  0.5000000000000000  0.5000000000000000
  0.5000000000000000  0.0000000000000000  0.5000000000000000
  0.6666666870000029  0.8333333129999971  0.8333333129999971
  0.1666666719999981  0.8333333129999971  0.8333333129999971
  0.1666666719999981  0.3333333429999996  0.8333333129999971
  0.3333333429999996  0.1666666719999981  0.1666666719999981
  0.8333333129999971  0.1666666719999981  0.1666666719999981
  0.8333333129999971  0.6666666870000029  0.1666666719999981
  0.9992799759999969  0.6666666870000029  0.6666666870000029
  0.0007200000000012  0.3333333129999971  0.3333333129999971
  0.3333333129999971  0.3326133190000036  0.6666666870000029
  0.6666666870000029  0.6673867109999989  0.3333333129999971
  0.6673867109999989  0.0007200000000012  0.6666666870000029
  0.3326133190000036  0.9992799759999969  0.3333333129999971
  0.6666666870000029  0.9992799759999969  0.3333333129999971
  0.3333333129999971  0.0007200000000012  0.6666666870000029
  0.3326133190000036  0.3333333129999971  0.3333333129999971
  0.6673867109999989  0.6666666870000029  0.6666666870000029
  0.0007200000000012  0.6673867109999989  0.3333333129999971
  0.9992799759999969  0.3326133190000036  0.6666666870000029
  0.6659466620000032  0.0000000000000000  0.0000000000000000
  0.0000000000000000  0.6659466620000032  0.0000000000000000
  0.3340533670000028  0.3340533379999968  0.0000000000000000
  0.0000000000000000  0.3340533379999968  0.0000000000000000
  0.3340533670000028  0.0000000000000000  0.0000000000000000
  0.6659466620000032  0.6659466620000032  0.0000000000000000
  0.6666666870000029  0.3333333429999996  0.0610900000000001
  0.3333333129999971  0.6666666269999979  0.9389100069999969
  0.3333333429999996  0.6666666870000029  0.3944233360000027
  0.0000000000000000  0.0000000000000000  0.2722433209999977
  0.0000000000000000  0.0000000000000000  0.7277566790000023
  0.6666666269999979  0.3333333129999971  0.6055766939999998
  0.6666666870000029  0.3333333429999996  0.2700600029999976
  0.3333333129999971  0.6666666269999979  0.7299399970000024
  0.3333333429999996  0.6666666870000029  0.6033933160000018
  0.0000000000000000  0.0000000000000000  0.0632733329999979
  0.0000000000000000  0.0000000000000000  0.9367266889999968
  0.6666666269999979  0.3333333129999971  0.3966066540000028
  0.6666666870000029  0.3333333429999996  0.9131399990000020
  0.3333333129999971  0.6666666269999979  0.0868600009999980
  0.3333333429999996  0.6666666870000029  0.2464733269999968
  0.0000000000000000  0.0000000000000000  0.4201933439999976
  0.0000000000000000  0.0000000000000000  0.5798066850000012
  0.6666666269999979  0.3333333129999971  0.7535266880000009
 
  0.00000000E+00  0.00000000E+00  0.00000000E+00
  0.00000000E+00  0.00000000E+00  0.00000000E+00
  0.00000000E+00  0.00000000E+00  0.00000000E+00
  0.00000000E+00  0.00000000E+00  0.00000000E+00
  0.00000000E+00  0.00000000E+00  0.00000000E+00
  0.00000000E+00  0.00000000E+00  0.00000000E+00
  0.00000000E+00  0.00000000E+00  0.00000000E+00
  0.00000000E+00  0.00000000E+00  0.00000000E+00
  0.00000000E+00  0.00000000E+00  0.00000000E+00
  0.00000000E+00  0.00000000E+00  0.00000000E+00
  0.00000000E+00  0.00000000E+00  0.00000000E+00
  0.00000000E+00  0.00000000E+00  0.00000000E+00
  0.00000000E+00  0.00000000E+00  0.00000000E+00
  0.00000000E+00  0.00000000E+00  0.00000000E+00
  0.00000000E+00  0.00000000E+00  0.00000000E+00
  0.00000000E+00  0.00000000E+00  0.00000000E+00
  0.00000000E+00  0.00000000E+00  0.00000000E+00
  0.00000000E+00  0.00000000E+00  0.00000000E+00
  0.00000000E+00  0.00000000E+00  0.00000000E+00
  0.00000000E+00  0.00000000E+00  0.00000000E+00
  0.00000000E+00  0.00000000E+00  0.00000000E+00
  0.00000000E+00  0.00000000E+00  0.00000000E+00
  0.00000000E+00  0.00000000E+00  0.00000000E+00
  0.00000000E+00  0.00000000E+00  0.00000000E+00
  0.00000000E+00  0.00000000E+00  0.00000000E+00
  0.00000000E+00  0.00000000E+00  0.00000000E+00
  0.00000000E+00  0.00000000E+00  0.00000000E+00
  0.00000000E+00  0.00000000E+00  0.00000000E+00
  0.00000000E+00  0.00000000E+00  0.00000000E+00
  0.00000000E+00  0.00000000E+00  0.00000000E+00
  0.00000000E+00  0.00000000E+00  0.00000000E+00
  0.00000000E+00  0.00000000E+00  0.00000000E+00
  0.00000000E+00  0.00000000E+00  0.00000000E+00
  0.00000000E+00  0.00000000E+00  0.00000000E+00
  0.00000000E+00  0.00000000E+00  0.00000000E+00
  0.00000000E+00  0.00000000E+00  0.00000000E+00
  0.00000000E+00  0.00000000E+00  0.00000000E+00
  0.00000000E+00  0.00000000E+00  0.00000000E+00
  0.00000000E+00  0.00000000E+00  0.00000000E+00
  0.00000000E+00  0.00000000E+00  0.00000000E+00
  0.00000000E+00  0.00000000E+00  0.00000000E+00
  0.00000000E+00  0.00000000E+00  0.00000000E+00
  0.00000000E+00  0.00000000E+00  0.00000000E+00
  0.00000000E+00  0.00000000E+00  0.00000000E+00
  0.00000000E+00  0.00000000E+00  0.00000000E+00
