PREC = Accurate  
ISMEAR = -5      
NSW = 0      
ISIF = 0 
EDIFF = 1E-8      
NBANDS = 72
ICHARG=2
LCHARG = .FALSE.
LWAVE  = .TRUE.
LORBIT = 12
ISYM = -1
NELM   =    100
NELMDL =     -5
NCORE=4
