CONTCAR                                 
1.0
        6.0786962509         0.0000000000         0.0000000000
       -1.5196740627         2.6321526876         0.0000000000
        0.0000000000         0.0000000000         7.3517765999
   Al    B   Mo
    2    4    4
Direct
     0.333333343         0.333333343         0.000000000
     0.833333373         0.333333343         0.000000000
     0.166666687         0.666666687         0.500000000
     0.666666687         0.666666687         0.500000000
     0.333333343         0.333333373         0.500000000
     0.833333373         0.333333373         0.500000000
     0.000000000         0.000000000         0.709101617
     0.500000000         0.000000000         0.709101617
     0.000000000         0.000000000         0.290898383
     0.500000000         0.000000000         0.290898383
